c   #vars: 41   #clauses: 178   #literals: 536
c 
p cnf 41 178
7 20 21 -39 0
-1 -2 0
-13 25 26 41 0
5 6 15 16 0
-3 -4 0
-5 -6 0
-3 -4 12 -20 0
-8 -9 0
-10 -11 0
-13 -14 0
-15 -16 0
22 37 38 -39 0
-18 -19 0
-20 -21 0
-3 25 26 41 0
27 28 34 35 0
15 16 -19 31 0
-23 -24 0
13 14 29 30 0
-25 -26 0
3 4 -25 41 0
-27 -28 0
-29 -30 0
15 16 -27 32 0
-18 23 24 33 0
12 -19 -20 31 0
-34 -35 0
5 6 -18 33 0
7 -37 39 40 0
-13 23 24 41 0
-37 -38 0
3 4 -13 41 0
7 -20 39 40 0
-39 -40 0
3 4 -23 41 0
12 -15 -19 31 0
-1 17 34 35 0
7 20 21 -37 0
1 2 17 -34 0
7 37 38 -39 0
1 2 -8 17 0
-10 -11 25 26 0
-1 -15 0
-2 -16 0
7 -20 37 38 0
-5 22 37 38 0
-2 -17 0
-1 -27 0
-2 -28 0
-8 15 16 36 0
-1 -37 0
-2 -38 0
23 24 -25 41 0
8 9 -20 36 0
8 9 -15 36 0
-3 27 28 32 0
-3 -25 0
-4 -26 0
-3 -29 0
-4 -30 0
-5 23 24 33 0
-4 -32 0
5 6 34 35 0
-4 -41 0
-23 25 26 41 0
-5 -15 0
-6 -16 0
-5 -18 0
-6 -19 0
-15 20 21 36 0
-12 15 16 31 0
-6 -22 0
-6 -33 0
15 16 -20 36 0
-5 -34 0
-6 -35 0
-3 -4 12 -15 0
-7 -21 0
-8 17 34 35 0
12 20 21 -31 0
-7 -38 0
12 15 16 -31 0
12 -15 20 21 0
-7 -40 0
5 6 22 -39 0
-9 -17 0
10 11 34 35 0
-8 -20 0
-9 -21 0
10 11 23 24 0
-8 -27 0
-9 -28 0
3 4 25 26 0
-3 23 24 41 0
-9 -36 0
10 11 18 19 0
-8 -39 0
-9 -40 0
1 2 15 16 0
-10 -18 0
-11 -19 0
8 9 17 -34 0
-10 -23 0
-11 -24 0
1 2 27 28 0
-10 -34 0
-11 -35 0
25 26 29 30 0
1 2 37 38 0
27 28 -29 -30 0
-10 -39 0
-11 -40 0
-12 -16 0
-12 -21 0
5 6 18 19 0
-15 27 28 32 0
8 9 39 40 0
10 11 -25 -26 0
-3 15 16 32 0
-3 13 14 41 0
-13 -29 0
-14 -30 0
-1 8 9 17 0
-13 -37 0
-14 -38 0
8 9 27 28 0
-14 -41 0
20 21 29 30 0
-15 -31 0
3 4 -27 32 0
18 19 -23 33 0
-16 -32 0
13 14 -25 41 0
-16 -36 0
-5 22 39 40 0
5 6 22 -37 0
-17 -35 0
12 -16 -20 31 0
-18 -31 0
3 4 -15 32 0
23 24 39 40 0
-19 -33 0
-20 -29 0
-21 -30 0
12 15 16 -20 0
13 14 -23 41 0
-21 -36 0
-20 -37 0
-21 -38 0
20 21 37 38 0
-16 18 19 31 0
-22 -38 0
12 -15 -16 31 0
-12 18 19 31 0
-22 -40 0
8 9 20 21 0
-24 -33 0
5 6 -23 33 0
-23 -39 0
-24 -40 0
13 14 37 38 0
-24 -41 0
22 -37 39 40 0
-25 -29 0
-26 -30 0
3 4 29 30 0
10 11 39 40 0
-27 -28 29 30 0
-3 -4 12 -31 0
-26 -41 0
-8 20 21 36 0
-5 18 19 33 0
-28 -32 0
-27 -34 0
-28 -35 0
27 28 39 40 0
-27 -39 0
-28 -40 0
